NAME          
ROWS
 N  OBJ
 L  c1
 L  c2
 L  c3
 L  c4
 L  c5
 L  c6
 L  c7
COLUMNS
    MARKER    'MARKER'                 'INTORG'
    x[1]      c1        1
    x[1]      c4        1
    x[1]      c6        1
    x[1]      OBJ       1
    x[2]      c1        1
    x[2]      c5        1
    x[2]      c7        1
    x[2]      OBJ       1
    x[3]      c2        1
    x[3]      c4        1
    x[3]      c7        1
    x[3]      OBJ       2
    x[4]      c2        1
    x[4]      c5        1
    x[4]      c6        1
    x[4]      OBJ       2
    x[5]      c3        1
    x[5]      c4        1
    x[5]      c5        1
    x[5]      OBJ       3
    x[6]      c3        1
    x[6]      c6        1
    x[6]      c7        1
    x[6]      OBJ       3
RHS
    rhs       c1        1
    rhs       c2        1
    rhs       c3        1
    rhs       c4        2
    rhs       c5        2
    rhs       c6        2
    rhs       c7        2
RANGES
BOUNDS
 BV bounds    x[1]
 BV bounds    x[2]
 BV bounds    x[3]
 BV bounds    x[4]
 BV bounds    x[5]
 BV bounds    x[6]
ENDATA
